0,6,9,8,5,9,2,4,1,8
6,0,3,9,3,8,7,8,6,8
9,3,0,9,4,1,1,7,6,1
8,9,9,0,5,8,7,6,9,6
5,3,4,5,0,3,1,3,1,7
9,8,1,8,3,0,5,9,2,8
2,7,1,7,1,5,0,4,3,7
4,8,7,6,3,9,4,0,3,4
1,6,6,9,1,2,3,3,0,7
8,8,1,6,7,8,7,4,7,0
